p cnf 1811
-23 -569
-24 -572
-25 -575
-26 -578
-27 -581
-28 -584
-29 -587
-30 -590
-31 -593
-32 -596
-33 -599
-34 -602
-35 -605
-36 -608
-37 -611
-38 -614
-39 -617
-40 -620
-41 -623
-42 -626
-43 -629
-44 -632
-45 633
-46 634
-47 635
-48 636
-49 637
-50 638
-51 639
-52 640
-53 641
-54 642
-55 643
-56 644
-57 645
-58 646
-59 647
-60 648
-61 649
-62 650
-63 -24
-63 -25
24 25 63
-64 -26
-64 -27
26 27 64
-65 -28
-65 -29
28 29 65
-66 -30
-66 -31
30 31 66
-67 -32
-67 -33
32 33 67
-68 -34
-68 -35
34 35 68
-69 -36
-69 -37
36 37 69
-70 -38
-70 -39
38 39 70
-71 -40
-71 -41
40 41 71
-72 -42
-72 -43
42 43 72
-73 -44
-73 -45
44 45 73
-74 -46
-74 -47
46 47 74
-75 -48
-75 -49
48 49 75
-76 -50
-76 -51
50 51 76
-77 -52
-77 -53
52 53 77
-78 -54
-78 -55
54 55 78
-79 -56
-79 -57
56 57 79
-80 -58
-80 -59
58 59 80
-81 -60
-81 -61
60 61 81
-82 63
-82 64
-63 -64 82
-83 65
-83 66
-65 -66 83
-84 67
-84 68
-67 -68 84
-85 69
-85 70
-69 -70 85
-86 71
-86 72
-71 -72 86
-87 73
-87 74
-73 -74 87
-88 75
-88 76
-75 -76 88
-89 77
-89 78
-77 -78 89
-90 79
-90 80
-79 -80 90
-91 -62
-91 81
62 -81 91
-92 82
-92 83
-82 -83 92
-93 84
-93 85
-84 -85 93
-94 86
-94 87
-86 -87 94
-95 88
-95 89
-88 -89 95
-96 90
-96 91
-90 -91 96
-97 92
-97 93
-92 -93 97
-98 94
-98 95
-94 -95 98
-99 97
-99 98
-97 -98 99
-100 96
-100 99
-96 -99 100
-101 -23
-101 24
23 -24 101
-102 23
-102 -24
-23 24 102
-103 -101
-103 -102
101 102 103
-104 23
-104 24
-23 -24 104
-105 -23
-105 -103
23 103 105
-106 23
-106 103
-23 -103 106
-107 -105
-107 -106
105 106 107
-108 23
-108 -103
-23 103 108
-109 -104
-109 -108
104 108 109
-110 -24
-110 25
24 -25 110
-111 24
-111 -25
-24 25 111
-112 -110
-112 -111
110 111 112
-113 24
-113 25
-24 -25 113
-114 109
-114 -112
-109 112 114
-115 -109
-115 112
109 -112 115
-116 -114
-116 -115
114 115 116
-117 -109
-117 -112
109 112 117
-118 -113
-118 -117
113 117 118
-119 -25
-119 26
25 -26 119
-120 25
-120 -26
-25 26 120
-121 -119
-121 -120
119 120 121
-122 25
-122 26
-25 -26 122
-123 118
-123 -121
-118 121 123
-124 -118
-124 121
118 -121 124
-125 -123
-125 -124
123 124 125
-126 -118
-126 -121
118 121 126
-127 -122
-127 -126
122 126 127
-128 -26
-128 27
26 -27 128
-129 26
-129 -27
-26 27 129
-130 -128
-130 -129
128 129 130
-131 26
-131 27
-26 -27 131
-132 127
-132 -130
-127 130 132
-133 -127
-133 130
127 -130 133
-134 -132
-134 -133
132 133 134
-135 -127
-135 -130
127 130 135
-136 -131
-136 -135
131 135 136
-137 -27
-137 28
27 -28 137
-138 27
-138 -28
-27 28 138
-139 -137
-139 -138
137 138 139
-140 27
-140 28
-27 -28 140
-141 136
-141 -139
-136 139 141
-142 -136
-142 139
136 -139 142
-143 -141
-143 -142
141 142 143
-144 -136
-144 -139
136 139 144
-145 -140
-145 -144
140 144 145
-146 -28
-146 29
28 -29 146
-147 28
-147 -29
-28 29 147
-148 -146
-148 -147
146 147 148
-149 28
-149 29
-28 -29 149
-150 145
-150 -148
-145 148 150
-151 -145
-151 148
145 -148 151
-152 -150
-152 -151
150 151 152
-153 -145
-153 -148
145 148 153
-154 -149
-154 -153
149 153 154
-155 -29
-155 30
29 -30 155
-156 29
-156 -30
-29 30 156
-157 -155
-157 -156
155 156 157
-158 29
-158 30
-29 -30 158
-159 154
-159 -157
-154 157 159
-160 -154
-160 157
154 -157 160
-161 -159
-161 -160
159 160 161
-162 -154
-162 -157
154 157 162
-163 -158
-163 -162
158 162 163
-164 -30
-164 31
30 -31 164
-165 30
-165 -31
-30 31 165
-166 -164
-166 -165
164 165 166
-167 30
-167 31
-30 -31 167
-168 163
-168 -166
-163 166 168
-169 -163
-169 166
163 -166 169
-170 -168
-170 -169
168 169 170
-171 -163
-171 -166
163 166 171
-172 -167
-172 -171
167 171 172
-173 -31
-173 32
31 -32 173
-174 31
-174 -32
-31 32 174
-175 -173
-175 -174
173 174 175
-176 31
-176 32
-31 -32 176
-177 172
-177 -175
-172 175 177
-178 -172
-178 175
172 -175 178
-179 -177
-179 -178
177 178 179
-180 -172
-180 -175
172 175 180
-181 -176
-181 -180
176 180 181
-182 -32
-182 33
32 -33 182
-183 32
-183 -33
-32 33 183
-184 -182
-184 -183
182 183 184
-185 32
-185 33
-32 -33 185
-186 181
-186 -184
-181 184 186
-187 -181
-187 184
181 -184 187
-188 -186
-188 -187
186 187 188
-189 -181
-189 -184
181 184 189
-190 -185
-190 -189
185 189 190
-191 -33
-191 34
33 -34 191
-192 33
-192 -34
-33 34 192
-193 -191
-193 -192
191 192 193
-194 33
-194 34
-33 -34 194
-195 190
-195 -193
-190 193 195
-196 -190
-196 193
190 -193 196
-197 -195
-197 -196
195 196 197
-198 -190
-198 -193
190 193 198
-199 -194
-199 -198
194 198 199
-200 -34
-200 35
34 -35 200
-201 34
-201 -35
-34 35 201
-202 -200
-202 -201
200 201 202
-203 34
-203 35
-34 -35 203
-204 199
-204 -202
-199 202 204
-205 -199
-205 202
199 -202 205
-206 -204
-206 -205
204 205 206
-207 -199
-207 -202
199 202 207
-208 -203
-208 -207
203 207 208
-209 -35
-209 36
35 -36 209
-210 35
-210 -36
-35 36 210
-211 -209
-211 -210
209 210 211
-212 35
-212 36
-35 -36 212
-213 208
-213 -211
-208 211 213
-214 -208
-214 211
208 -211 214
-215 -213
-215 -214
213 214 215
-216 -208
-216 -211
208 211 216
-217 -212
-217 -216
212 216 217
-218 -36
-218 37
36 -37 218
-219 36
-219 -37
-36 37 219
-220 -218
-220 -219
218 219 220
-221 36
-221 37
-36 -37 221
-222 217
-222 -220
-217 220 222
-223 -217
-223 220
217 -220 223
-224 -222
-224 -223
222 223 224
-225 -217
-225 -220
217 220 225
-226 -221
-226 -225
221 225 226
-227 -37
-227 38
37 -38 227
-228 37
-228 -38
-37 38 228
-229 -227
-229 -228
227 228 229
-230 37
-230 38
-37 -38 230
-231 226
-231 -229
-226 229 231
-232 -226
-232 229
226 -229 232
-233 -231
-233 -232
231 232 233
-234 -226
-234 -229
226 229 234
-235 -230
-235 -234
230 234 235
-236 -38
-236 39
38 -39 236
-237 38
-237 -39
-38 39 237
-238 -236
-238 -237
236 237 238
-239 38
-239 39
-38 -39 239
-240 235
-240 -238
-235 238 240
-241 -235
-241 238
235 -238 241
-242 -240
-242 -241
240 241 242
-243 -235
-243 -238
235 238 243
-244 -239
-244 -243
239 243 244
-245 -39
-245 40
39 -40 245
-246 39
-246 -40
-39 40 246
-247 -245
-247 -246
245 246 247
-248 39
-248 40
-39 -40 248
-249 244
-249 -247
-244 247 249
-250 -244
-250 247
244 -247 250
-251 -249
-251 -250
249 250 251
-252 -244
-252 -247
244 247 252
-253 -248
-253 -252
248 252 253
-254 -40
-254 41
40 -41 254
-255 40
-255 -41
-40 41 255
-256 -254
-256 -255
254 255 256
-257 40
-257 41
-40 -41 257
-258 253
-258 -256
-253 256 258
-259 -253
-259 256
253 -256 259
-260 -258
-260 -259
258 259 260
-261 -253
-261 -256
253 256 261
-262 -257
-262 -261
257 261 262
-263 -41
-263 42
41 -42 263
-264 41
-264 -42
-41 42 264
-265 -263
-265 -264
263 264 265
-266 41
-266 42
-41 -42 266
-267 262
-267 -265
-262 265 267
-268 -262
-268 265
262 -265 268
-269 -267
-269 -268
267 268 269
-270 -262
-270 -265
262 265 270
-271 -266
-271 -270
266 270 271
-272 -42
-272 43
42 -43 272
-273 42
-273 -43
-42 43 273
-274 -272
-274 -273
272 273 274
-275 42
-275 43
-42 -43 275
-276 271
-276 -274
-271 274 276
-277 -271
-277 274
271 -274 277
-278 -276
-278 -277
276 277 278
-279 -271
-279 -274
271 274 279
-280 -275
-280 -279
275 279 280
-281 -43
-281 44
43 -44 281
-282 43
-282 -44
-43 44 282
-283 -281
-283 -282
281 282 283
-284 43
-284 44
-43 -44 284
-285 280
-285 -283
-280 283 285
-286 -280
-286 283
280 -283 286
-287 -285
-287 -286
285 286 287
-288 -280
-288 -283
280 283 288
-289 -284
-289 -288
284 288 289
-290 -44
-290 45
44 -45 290
-291 44
-291 -45
-44 45 291
-292 -290
-292 -291
290 291 292
-293 44
-293 45
-44 -45 293
-294 289
-294 -292
-289 292 294
-295 -289
-295 292
289 -292 295
-296 -294
-296 -295
294 295 296
-297 -289
-297 -292
289 292 297
-298 -293
-298 -297
293 297 298
-299 -45
-299 46
45 -46 299
-300 45
-300 -46
-45 46 300
-301 -299
-301 -300
299 300 301
-302 45
-302 46
-45 -46 302
-303 298
-303 -301
-298 301 303
-304 -298
-304 301
298 -301 304
-305 -303
-305 -304
303 304 305
-306 -298
-306 -301
298 301 306
-307 -302
-307 -306
302 306 307
-308 -46
-308 47
46 -47 308
-309 46
-309 -47
-46 47 309
-310 -308
-310 -309
308 309 310
-311 46
-311 47
-46 -47 311
-312 307
-312 -310
-307 310 312
-313 -307
-313 310
307 -310 313
-314 -312
-314 -313
312 313 314
-315 -307
-315 -310
307 310 315
-316 -311
-316 -315
311 315 316
-317 -47
-317 48
47 -48 317
-318 47
-318 -48
-47 48 318
-319 -317
-319 -318
317 318 319
-320 47
-320 48
-47 -48 320
-321 316
-321 -319
-316 319 321
-322 -316
-322 319
316 -319 322
-323 -321
-323 -322
321 322 323
-324 -316
-324 -319
316 319 324
-325 -320
-325 -324
320 324 325
-326 -48
-326 49
48 -49 326
-327 48
-327 -49
-48 49 327
-328 -326
-328 -327
326 327 328
-329 48
-329 49
-48 -49 329
-330 325
-330 -328
-325 328 330
-331 -325
-331 328
325 -328 331
-332 -330
-332 -331
330 331 332
-333 -325
-333 -328
325 328 333
-334 -329
-334 -333
329 333 334
-335 -49
-335 50
49 -50 335
-336 49
-336 -50
-49 50 336
-337 -335
-337 -336
335 336 337
-338 49
-338 50
-49 -50 338
-339 334
-339 -337
-334 337 339
-340 -334
-340 337
334 -337 340
-341 -339
-341 -340
339 340 341
-342 -334
-342 -337
334 337 342
-343 -338
-343 -342
338 342 343
-344 -50
-344 51
50 -51 344
-345 50
-345 -51
-50 51 345
-346 -344
-346 -345
344 345 346
-347 50
-347 51
-50 -51 347
-348 343
-348 -346
-343 346 348
-349 -343
-349 346
343 -346 349
-350 -348
-350 -349
348 349 350
-351 -343
-351 -346
343 346 351
-352 -347
-352 -351
347 351 352
-353 -51
-353 52
51 -52 353
-354 51
-354 -52
-51 52 354
-355 -353
-355 -354
353 354 355
-356 51
-356 52
-51 -52 356
-357 352
-357 -355
-352 355 357
-358 -352
-358 355
352 -355 358
-359 -357
-359 -358
357 358 359
-360 -352
-360 -355
352 355 360
-361 -356
-361 -360
356 360 361
-362 -52
-362 53
52 -53 362
-363 52
-363 -53
-52 53 363
-364 -362
-364 -363
362 363 364
-365 52
-365 53
-52 -53 365
-366 361
-366 -364
-361 364 366
-367 -361
-367 364
361 -364 367
-368 -366
-368 -367
366 367 368
-369 -361
-369 -364
361 364 369
-370 -365
-370 -369
365 369 370
-371 -53
-371 54
53 -54 371
-372 53
-372 -54
-53 54 372
-373 -371
-373 -372
371 372 373
-374 53
-374 54
-53 -54 374
-375 370
-375 -373
-370 373 375
-376 -370
-376 373
370 -373 376
-377 -375
-377 -376
375 376 377
-378 -370
-378 -373
370 373 378
-379 -374
-379 -378
374 378 379
-380 -54
-380 55
54 -55 380
-381 54
-381 -55
-54 55 381
-382 -380
-382 -381
380 381 382
-383 54
-383 55
-54 -55 383
-384 379
-384 -382
-379 382 384
-385 -379
-385 382
379 -382 385
-386 -384
-386 -385
384 385 386
-387 -379
-387 -382
379 382 387
-388 -383
-388 -387
383 387 388
-389 -55
-389 56
55 -56 389
-390 55
-390 -56
-55 56 390
-391 -389
-391 -390
389 390 391
-392 55
-392 56
-55 -56 392
-393 388
-393 -391
-388 391 393
-394 -388
-394 391
388 -391 394
-395 -393
-395 -394
393 394 395
-396 -388
-396 -391
388 391 396
-397 -392
-397 -396
392 396 397
-398 -56
-398 57
56 -57 398
-399 56
-399 -57
-56 57 399
-400 -398
-400 -399
398 399 400
-401 56
-401 57
-56 -57 401
-402 397
-402 -400
-397 400 402
-403 -397
-403 400
397 -400 403
-404 -402
-404 -403
402 403 404
-405 -397
-405 -400
397 400 405
-406 -401
-406 -405
401 405 406
-407 -57
-407 58
57 -58 407
-408 57
-408 -58
-57 58 408
-409 -407
-409 -408
407 408 409
-410 57
-410 58
-57 -58 410
-411 406
-411 -409
-406 409 411
-412 -406
-412 409
406 -409 412
-413 -411
-413 -412
411 412 413
-414 -406
-414 -409
406 409 414
-415 -410
-415 -414
410 414 415
-416 -58
-416 59
58 -59 416
-417 58
-417 -59
-58 59 417
-418 -416
-418 -417
416 417 418
-419 58
-419 59
-58 -59 419
-420 415
-420 -418
-415 418 420
-421 -415
-421 418
415 -418 421
-422 -420
-422 -421
420 421 422
-423 -415
-423 -418
415 418 423
-424 -419
-424 -423
419 423 424
-425 -59
-425 60
59 -60 425
-426 59
-426 -60
-59 60 426
-427 -425
-427 -426
425 426 427
-428 59
-428 60
-59 -60 428
-429 424
-429 -427
-424 427 429
-430 -424
-430 427
424 -427 430
-431 -429
-431 -430
429 430 431
-432 -424
-432 -427
424 427 432
-433 -428
-433 -432
428 432 433
-434 -60
-434 61
60 -61 434
-435 60
-435 -61
-60 61 435
-436 -434
-436 -435
434 435 436
-437 60
-437 61
-60 -61 437
-438 433
-438 -436
-433 436 438
-439 -433
-439 436
433 -436 439
-440 -438
-440 -439
438 439 440
-441 -433
-441 -436
433 436 441
-442 -437
-442 -441
437 441 442
-443 -61
-443 62
61 -62 443
-444 61
-444 -62
-61 62 444
-445 -443
-445 -444
443 444 445
-446 61
-446 62
-61 -62 446
-447 442
-447 -445
-442 445 447
-448 -442
-448 445
442 -445 448
-449 -447
-449 -448
447 448 449
-450 -442
-450 -445
442 445 450
-451 -446
-451 -450
446 450 451
-452 23
-452 -107
-23 107 452
-453 -23
-453 25
23 -25 453
-454 -452
-454 -453
452 453 454
-455 23
-455 -116
-23 116 455
-456 -23
-456 26
23 -26 456
-457 -455
-457 -456
455 456 457
-458 23
-458 -125
-23 125 458
-459 -23
-459 27
23 -27 459
-460 -458
-460 -459
458 459 460
-461 23
-461 -134
-23 134 461
-462 -23
-462 28
23 -28 462
-463 -461
-463 -462
461 462 463
-464 23
-464 -143
-23 143 464
-465 -23
-465 29
23 -29 465
-466 -464
-466 -465
464 465 466
-467 23
-467 -152
-23 152 467
-468 -23
-468 30
23 -30 468
-469 -467
-469 -468
467 468 469
-470 23
-470 -161
-23 161 470
-471 -23
-471 31
23 -31 471
-472 -470
-472 -471
470 471 472
-473 23
-473 -170
-23 170 473
-474 -23
-474 32
23 -32 474
-475 -473
-475 -474
473 474 475
-476 23
-476 -179
-23 179 476
-477 -23
-477 33
23 -33 477
-478 -476
-478 -477
476 477 478
-479 23
-479 -188
-23 188 479
-480 -23
-480 34
23 -34 480
-481 -479
-481 -480
479 480 481
-482 23
-482 -197
-23 197 482
-483 -23
-483 35
23 -35 483
-484 -482
-484 -483
482 483 484
-485 23
-485 -206
-23 206 485
-486 -23
-486 36
23 -36 486
-487 -485
-487 -486
485 486 487
-488 23
-488 -215
-23 215 488
-489 -23
-489 37
23 -37 489
-490 -488
-490 -489
488 489 490
-491 23
-491 -224
-23 224 491
-492 -23
-492 38
23 -38 492
-493 -491
-493 -492
491 492 493
-494 23
-494 -233
-23 233 494
-495 -23
-495 39
23 -39 495
-496 -494
-496 -495
494 495 496
-497 23
-497 -242
-23 242 497
-498 -23
-498 40
23 -40 498
-499 -497
-499 -498
497 498 499
-500 23
-500 -251
-23 251 500
-501 -23
-501 41
23 -41 501
-502 -500
-502 -501
500 501 502
-503 23
-503 -260
-23 260 503
-504 -23
-504 42
23 -42 504
-505 -503
-505 -504
503 504 505
-506 23
-506 -269
-23 269 506
-507 -23
-507 43
23 -43 507
-508 -506
-508 -507
506 507 508
-509 23
-509 -278
-23 278 509
-510 -23
-510 44
23 -44 510
-511 -509
-511 -510
509 510 511
-512 23
-512 -287
-23 287 512
-513 -23
-513 45
23 -45 513
-514 -512
-514 -513
512 513 514
-515 23
-515 -296
-23 296 515
-516 -23
-516 46
23 -46 516
-517 -515
-517 -516
515 516 517
-518 23
-518 -305
-23 305 518
-519 -23
-519 47
23 -47 519
-520 -518
-520 -519
518 519 520
-521 23
-521 -314
-23 314 521
-522 -23
-522 48
23 -48 522
-523 -521
-523 -522
521 522 523
-524 23
-524 -323
-23 323 524
-525 -23
-525 49
23 -49 525
-526 -524
-526 -525
524 525 526
-527 23
-527 -332
-23 332 527
-528 -23
-528 50
23 -50 528
-529 -527
-529 -528
527 528 529
-530 23
-530 -341
-23 341 530
-531 -23
-531 51
23 -51 531
-532 -530
-532 -531
530 531 532
-533 23
-533 -350
-23 350 533
-534 -23
-534 52
23 -52 534
-535 -533
-535 -534
533 534 535
-536 23
-536 -359
-23 359 536
-537 -23
-537 53
23 -53 537
-538 -536
-538 -537
536 537 538
-539 23
-539 -368
-23 368 539
-540 -23
-540 54
23 -54 540
-541 -539
-541 -540
539 540 541
-542 23
-542 -377
-23 377 542
-543 -23
-543 55
23 -55 543
-544 -542
-544 -543
542 543 544
-545 23
-545 -386
-23 386 545
-546 -23
-546 56
23 -56 546
-547 -545
-547 -546
545 546 547
-548 23
-548 -395
-23 395 548
-549 -23
-549 57
23 -57 549
-550 -548
-550 -549
548 549 550
-551 23
-551 -404
-23 404 551
-552 -23
-552 58
23 -58 552
-553 -551
-553 -552
551 552 553
-554 23
-554 -413
-23 413 554
-555 -23
-555 59
23 -59 555
-556 -554
-556 -555
554 555 556
-557 23
-557 -422
-23 422 557
-558 -23
-558 60
23 -60 558
-559 -557
-559 -558
557 558 559
-560 23
-560 -431
-23 431 560
-561 -23
-561 61
23 -61 561
-562 -560
-562 -561
560 561 562
-563 23
-563 -440
-23 440 563
-564 -23
-564 62
23 -62 564
-565 -563
-565 -564
563 564 565
-566 23
-566 -449
-23 449 566
-567 1
-567 100
-1 -100 567
-568 -100
-568 101
100 -101 568
-569 -567
-569 -568
567 568 569
-570 2
-570 100
-2 -100 570
-571 -100
-571 -454
100 454 571
-572 -570
-572 -571
570 571 572
-573 3
-573 100
-3 -100 573
-574 -100
-574 -457
100 457 574
-575 -573
-575 -574
573 574 575
-576 4
-576 100
-4 -100 576
-577 -100
-577 -460
100 460 577
-578 -576
-578 -577
576 577 578
-579 5
-579 100
-5 -100 579
-580 -100
-580 -463
100 463 580
-581 -579
-581 -580
579 580 581
-582 6
-582 100
-6 -100 582
-583 -100
-583 -466
100 466 583
-584 -582
-584 -583
582 583 584
-585 7
-585 100
-7 -100 585
-586 -100
-586 -469
100 469 586
-587 -585
-587 -586
585 586 587
-588 8
-588 100
-8 -100 588
-589 -100
-589 -472
100 472 589
-590 -588
-590 -589
588 589 590
-591 9
-591 100
-9 -100 591
-592 -100
-592 -475
100 475 592
-593 -591
-593 -592
591 592 593
-594 10
-594 100
-10 -100 594
-595 -100
-595 -478
100 478 595
-596 -594
-596 -595
594 595 596
-597 11
-597 100
-11 -100 597
-598 -100
-598 -481
100 481 598
-599 -597
-599 -598
597 598 599
-600 12
-600 100
-12 -100 600
-601 -100
-601 -484
100 484 601
-602 -600
-602 -601
600 601 602
-603 13
-603 100
-13 -100 603
-604 -100
-604 -487
100 487 604
-605 -603
-605 -604
603 604 605
-606 14
-606 100
-14 -100 606
-607 -100
-607 -490
100 490 607
-608 -606
-608 -607
606 607 608
-609 15
-609 100
-15 -100 609
-610 -100
-610 -493
100 493 610
-611 -609
-611 -610
609 610 611
-612 16
-612 100
-16 -100 612
-613 -100
-613 -496
100 496 613
-614 -612
-614 -613
612 613 614
-615 17
-615 100
-17 -100 615
-616 -100
-616 -499
100 499 616
-617 -615
-617 -616
615 616 617
-618 18
-618 100
-18 -100 618
-619 -100
-619 -502
100 502 619
-620 -618
-620 -619
618 619 620
-621 19
-621 100
-19 -100 621
-622 -100
-622 -505
100 505 622
-623 -621
-623 -622
621 622 623
-624 20
-624 100
-20 -100 624
-625 -100
-625 -508
100 508 625
-626 -624
-626 -625
624 625 626
-627 21
-627 100
-21 -100 627
-628 -100
-628 -511
100 511 628
-629 -627
-629 -628
627 628 629
-630 22
-630 100
-22 -100 630
-631 -100
-631 -514
100 514 631
-632 -630
-632 -631
630 631 632
-633 -100
-633 -517
100 517 633
-634 -100
-634 -520
100 520 634
-635 -100
-635 -523
100 523 635
-636 -100
-636 -526
100 526 636
-637 -100
-637 -529
100 529 637
-638 -100
-638 -532
100 532 638
-639 -100
-639 -535
100 535 639
-640 -100
-640 -538
100 538 640
-641 -100
-641 -541
100 541 641
-642 -100
-642 -544
100 544 642
-643 -100
-643 -547
100 547 643
-644 -100
-644 -550
100 550 644
-645 -100
-645 -553
100 553 645
-646 -100
-646 -556
100 556 646
-647 -100
-647 -559
100 559 647
-648 -100
-648 -562
100 562 648
-649 -100
-649 -565
100 565 649
-650 -100
-650 566
100 -566 650
-651 -62
-651 451
62 -451 651
-652 23
-652 -651
-23 651 652
652
